Route #1: 19 37 7 28 57 16 44 21
Route #2: 25 43 17 10 33 32 12
Route #3: 1 11 47 54 34 42
Route #4: 31 9 2 49 27 15 6 35 4 26
Route #5: 52 48 59 14 50
Route #6: 23 29 22 53 3 40
Route #7: 45 30 46 58 8
Route #8: 56 24 41 5 51
Route #9: 38 55 13 39 18 20 36

Cost: 3731.100922856391
